0000000000000000
0000000000000000
0000000000000000
0011111111111100
0011111111111100
0011111111111100
0000000011110000
0000000011110000
0000000011110000
0000000011110000
0000000011110000
0000000011110000
0000000011110000
0000000011110000
0000000000000000
0000000000000000
